% File represents an instance of a Composite Structure problem to be solved by a CP framework
% Created on 2025-03-25 14:06:11.656
T = 56;
n = 16;
m = 24;
edges = [(1, 2),
(6, 5),
(10, 9),
(14, 13),
(2, 3),
(6, 7),
(11, 10),
(15, 14),
(3, 4),
(7, 8),
(11, 12),
(15, 16),
(1, 5),
(9, 5),
(9, 13),
(6, 2),
(6, 10),
(14, 10),
(7, 3),
(11, 7),
(15, 11),
(8, 4),
(12, 8),
(16, 12)];
counts = [|6, 4, 16, 22,
|6, 2, 14, 22,
|6, 2, 14, 14,
|6, 2, 8, 14,
|4, 2, 16, 16,
|6, 2, 16, 22,
|6, 2, 16, 18,
|6, 2, 12, 16,
|6, 2, 16, 18,
|6, 2, 16, 20,
|6, 2, 24, 20,
|6, 2, 22, 16,
|4, 2, 12, 18,
|6, 2, 18, 20,
|8, 2, 24, 22,
|6, 2, 24, 22|];
